<number of tasks>
50

<cycle time>
1000

<order strength>
0.6


<task times>
1 360
2 626
3 634
4 490
5 432
6 363
7 444
8 649
9 481
10 476
11 370
12 437
13 699
14 577
15 535
16 362
17 642
18 486
19 763
20 626
21 468
22 280
23 603
24 606
25 521
26 521
27 531
28 547
29 564
30 573
31 432
32 385
33 663
34 669
35 475
36 429
37 448
38 563
39 519
40 644
41 555
42 656
43 591
44 461
45 411
46 450
47 402
48 337
49 475
50 424

<precedence relations>
1,6
2,7
3,9
4,8
4,13
4,14
4,15
4,16
5,10
6,12
7,12
8,11
9,13
10,12
10,13
10,14
10,15
10,16
11,18
12,17
12,19
12,20
13,19
13,20
14,19
14,20
15,19
15,20
16,19
16,20
17,21
18,22
19,23
19,24
20,24
21,25
22,26
23,27
24,28
24,29
25,30
26,31
27,30
28,30
28,31
28,32
28,33
28,34
28,35
29,30
29,31
29,32
29,33
29,34
29,35
30,37
30,38
31,46
32,36
32,49
32,50
33,38
35,38
36,39
37,40
38,41
38,42
39,44
40,45
41,43
41,46
42,46
43,47
44,48
45,48
46,48
46,49
46,50

<end>
